33D32945 STP File, STP Format Version 1.0

SECTION Comments
Name "edge_n14_d3_s33"
Problem "Euclidean Steiner Tree Problem"
Remark "Generated with STPGenerator. 3 dimensions."
END

SECTION Graph
Nodes 14
END

SECTION Coordinates
DDD 0 0.3079489355 0.3079489355 0.3079489355
DDD 1 0.6126976412 0.6126976412 0.6126976412
DDD 2 0.4672263043 0.4672263043 0.4672263043
DDD 3 0.5413947988 0.5413947988 0.5413947988
DDD 4 0.3004468834 0.3004468834 0.3004468834
DDD 5 0.2632564820 0.2632564820 0.2632564820
DDD 6 0.8872430967 0.8872430967 0.8872430967
DDD 7 0.7088636578 0.7088636578 0.7088636578
DDD 8 0.0528921765 0.0528921765 0.0528921765
DDD 9 0.2627286242 0.2627286242 0.2627286242
DDD 10 0.2802385941 0.2802385941 0.2802385941
DDD 11 0.3090906377 0.3090906377 0.3090906377
DDD 12 0.2058983465 0.2058983465 0.2058983465
DDD 13 0.1701670499 0.1701670499 0.1701670499
END
